Instance: Data/Instances_txt/inst_100_10_4.txt
SetUpTime: 31.78939199447632

Gurobi 10.0.1 (mac64[x86]) logging started Di  1 Aug 16:45:04 2023

Set parameter LogFile to value "Output/MILP_RELAXED_inst_100_10_4_2023-08-01_16-28-50.txt"
Set parameter TimeLimit to value 2700

Gurobi 10.0.1 (mac64[x86]) logging started Di  1 Aug 16:45:04 2023

Set parameter LogFile to value "Output/MILP_RELAXED_inst_100_10_4_2023-08-01_16-28-50.txt"
Gurobi Optimizer version 10.0.1 build v10.0.1rc0 (mac64[x86])

CPU model: Intel(R) Core(TM) i5-1038NG7 CPU @ 2.00GHz
Thread count: 4 physical cores, 8 logical processors, using up to 8 threads

Optimize a model with 201 rows, 41149 columns and 229284 nonzeros
Model fingerprint: 0xaea76b57
Coefficient statistics:
  Matrix range     [1e+00, 1e+00]
  Objective range  [6e+00, 1e+04]
  Bounds range     [1e+00, 1e+00]
  RHS range        [1e+00, 1e+00]
Presolve time: 0.07s
Presolved: 201 rows, 41149 columns, 229284 nonzeros

Concurrent LP optimizer: dual simplex and barrier
Showing barrier log only...

Ordering time: 0.00s

Barrier statistics:
 AA' NZ     : 1.165e+04
 Factor NZ  : 2.030e+04 (roughly 17 MB of memory)
 Factor Ops : 2.727e+06 (less than 1 second per iteration)
 Threads    : 3

                  Objective                Residual
Iter       Primal          Dual         Primal    Dual     Compl     Time
   0   1.18965309e+07  0.00000000e+00  4.62e+02 0.00e+00  7.83e-01     0s
   1   1.46082597e+06 -4.68578487e+04  5.31e+01 1.42e-14  9.54e-02     0s
   2   1.33604174e+05 -3.09590341e+04  2.02e+00 1.42e-14  8.51e-03     0s
   3   7.33307653e+04  3.04504801e+04  1.05e-01 2.13e-14  2.00e-03     0s
   4   6.14499368e+04  4.92519640e+04  5.61e-03 1.60e-14  5.75e-04     0s
   5   5.78467102e+04  5.19930355e+04  1.58e-03 1.60e-14  2.77e-04     0s
   6   5.51660807e+04  5.22974834e+04  3.69e-04 1.60e-14  1.36e-04     0s
   7   5.41073570e+04  5.26686045e+04  1.33e-04 1.42e-14  6.82e-05     0s
   8   5.33841913e+04  5.28423200e+04  2.51e-05 1.42e-14  2.57e-05     0s
   9   5.30624423e+04  5.29378202e+04  9.08e-07 1.60e-14  5.91e-06     0s
  10   5.30077153e+04  5.29652746e+04  2.08e-07 1.78e-14  2.01e-06     0s
  11   5.29880924e+04  5.29749619e+04  3.83e-08 1.42e-14  6.23e-07     0s
  12   5.29831051e+04  5.29783748e+04  1.23e-08 1.78e-14  2.25e-07     0s
  13   5.29808076e+04  5.29799039e+04  2.25e-09 1.42e-14  4.29e-08     0s
  14   5.29803103e+04  5.29802269e+04  4.63e-10 1.60e-14  3.96e-09     0s
  15   5.29802518e+04  5.29802384e+04  2.06e-10 1.60e-14  6.39e-10     0s
  16   5.29802401e+04  5.29802396e+04  1.03e-09 1.42e-14  2.60e-11     0s

Barrier solved model in 16 iterations and 0.27 seconds (0.22 work units)
Optimal objective 5.29802401e+04

Crossover log...

      34 DPushes remaining with DInf 0.0000000e+00                 0s
       0 DPushes remaining with DInf 0.0000000e+00                 0s

     115 PPushes remaining with PInf 0.0000000e+00                 0s
       0 PPushes remaining with PInf 0.0000000e+00                 0s

  Push phase complete: Pinf 0.0000000e+00, Dinf 6.6846528e-13      0s


Solved with barrier
Iteration    Objective       Primal Inf.    Dual Inf.      Time
     150    5.2980240e+04   0.000000e+00   0.000000e+00      0s

Solved in 150 iterations and 0.30 seconds (0.24 work units)
Optimal objective  5.298023964e+04

User-callback calls 300, time in user-callback 0.00 sec

=========================

OUTPUT STATISTICS
Relaxed: true
Time since start: 32.83729100227356
SetUpTime: 31.78939199447632
Objective value: 52980.239640883985
Number of variables: 41149
Solving time: 1.0468409061431885
